rcpsp/heur_output_bi_constraints/Log=5/heurj60.txt
encoding rcpsp/j60.sm/j6028_2.sm nv: 1316084 nc: 2650006 enctime: 18.53
encoding rcpsp/j60.sm/j6028_2.sm nv: 269199 nc: 540311 enctime: 3.11
c File: j6028_2.smnaivebi5.wcnf
c optimal
c final solution cost: 57
c CPU time: 3.596372
s OPTIMUM FOUND

c File: j6028_2.smbi5.wcnf
c optimal
c final solution cost: 57
c CPU time: 0.653587
s OPTIMUM FOUND


rcpsp/heur_output_bi_constraints/Log=5/heurj60.txt
encoding rcpsp/j60.sm/j6028_3.sm nv: 1219680 nc: 2462520 enctime: 17.13
encoding rcpsp/j60.sm/j6028_3.sm nv: 316800 nc: 638064 enctime: 3.62
c File: j6028_3.smnaivebi5.wcnf
c optimal
c final solution cost: 72
c CPU time: 2.847255
s OPTIMUM FOUND

c File: j6028_3.smbi5.wcnf
c optimal
c final solution cost: 72
c CPU time: 0.601896
s OPTIMUM FOUND


rcpsp/heur_output_bi_constraints/Log=5/heurj60.txt
encoding rcpsp/j60.sm/j6028_4.sm nv: 1194204 nc: 2422113 enctime: 16.86
encoding rcpsp/j60.sm/j6028_4.sm nv: 294954 nc: 596363 enctime: 3.38
c File: j6028_4.smnaivebi5.wcnf
c optimal
c final solution cost: 69
c CPU time: 3.396855
s OPTIMUM FOUND

c File: j6028_4.smbi5.wcnf
c optimal
c final solution cost: 69
c CPU time: 0.755547
s OPTIMUM FOUND


rcpsp/heur_output_bi_constraints/Log=5/heurj60.txt
encoding rcpsp/j60.sm/j6028_5.sm nv: 1633440 nc: 3282641 enctime: 22.24
encoding rcpsp/j60.sm/j6028_5.sm nv: 373920 nc: 749521 enctime: 4.24
c File: j6028_5.smnaivebi5.wcnf
c optimal
c final solution cost: 69
c CPU time: 3.642185
s OPTIMUM FOUND

c File: j6028_5.smbi5.wcnf
c optimal
c final solution cost: 69
c CPU time: 0.696317
s OPTIMUM FOUND


rcpsp/heur_output_bi_constraints/Log=5/heurj60.txt
encoding rcpsp/j60.sm/j6028_6.sm nv: 1372385 nc: 2785146 enctime: 19.34
encoding rcpsp/j60.sm/j6028_6.sm nv: 355950 nc: 720408 enctime: 4.56
c File: j6028_6.smnaivebi5.wcnf
c optimal
c final solution cost: 89
c CPU time: 3.166248
s OPTIMUM FOUND

c File: j6028_6.smbi5.wcnf
c optimal
c final solution cost: 89
c CPU time: 0.608740
s OPTIMUM FOUND


rcpsp/heur_output_bi_constraints/Log=5/heurj60.txt
encoding rcpsp/j60.sm/j6028_7.sm nv: 1822842 nc: 3658189 enctime: 24.66
encoding rcpsp/j60.sm/j6028_7.sm nv: 394128 nc: 789016 enctime: 5.13
c File: j6028_7.smnaivebi5.wcnf
c optimal
c final solution cost: 71
c CPU time: 4.343915
s OPTIMUM FOUND

c File: j6028_7.smbi5.wcnf
c optimal
c final solution cost: 71
c CPU time: 0.668167
s OPTIMUM FOUND


rcpsp/heur_output_bi_constraints/Log=5/heurj60.txt
encoding rcpsp/j60.sm/j6028_8.sm nv: 1206400 nc: 2442041 enctime: 16.72
encoding rcpsp/j60.sm/j6028_8.sm nv: 252590 nc: 509374 enctime: 2.92
c File: j6028_8.smnaivebi5.wcnf
c optimal
c final solution cost: 62
c CPU time: 2.778837
s OPTIMUM FOUND

c File: j6028_8.smbi5.wcnf
c optimal
c final solution cost: 62
c CPU time: 0.458395
s OPTIMUM FOUND


rcpsp/heur_output_bi_constraints/Log=5/heurj60.txt
encoding rcpsp/j60.sm/j6028_9.sm nv: 1532940 nc: 3103923 enctime: 21.57
encoding rcpsp/j60.sm/j6028_9.sm nv: 321565 nc: 648998 enctime: 3.72
c File: j6028_9.smnaivebi5.wcnf
c optimal
c final solution cost: 67
c CPU time: 4.022325
s OPTIMUM FOUND

c File: j6028_9.smbi5.wcnf
c optimal
c final solution cost: 67
c CPU time: 0.719159
s OPTIMUM FOUND


rcpsp/heur_output_bi_constraints/Log=5/heurj60.txt
encoding rcpsp/j60.sm/j602_8.sm nv: 161539 nc: 384453 enctime: 3.76
encoding rcpsp/j60.sm/j602_8.sm nv: 35352 nc: 82221 enctime: 0.50
c File: j602_8.smnaivebi5.wcnf
c optimal
c final solution cost: 61
c CPU time: 0.879323
s OPTIMUM FOUND

c File: j602_8.smbi5.wcnf
c optimal
c final solution cost: 61
c CPU time: 0.086902
s OPTIMUM FOUND


rcpsp/heur_output_bi_constraints/Log=5/heurj60.txt
encoding rcpsp/j60.sm/j6029_10.sm nv: 948864 nc: 1967425 enctime: 14.27
encoding rcpsp/j60.sm/j6029_10.sm nv: 392448 nc: 812158 enctime: 4.90
c File: j6029_10.smnaivebi5.wcnf
c timeout
c final solution cost: 128
c CPU time: 61.996010
s UNKNOWN

c File: j6029_10.smbi5.wcnf
c timeout
c final solution cost: 125
c CPU time: 60.678204
s UNKNOWN


rcpsp/heur_output_bi_constraints/Log=5/heurj60.txt
encoding rcpsp/j60.sm/j6029_1.sm nv: 851620 nc: 1751597 enctime: 12.13
encoding rcpsp/j60.sm/j6029_1.sm nv: 364980 nc: 749453 enctime: 4.43
c File: j6029_1.smnaivebi5.wcnf
c timeout
c final solution cost: 107
c CPU time: 61.707226
s UNKNOWN

c File: j6029_1.smbi5.wcnf
c timeout
c final solution cost: 109
c CPU time: 60.608889
s UNKNOWN


rcpsp/heur_output_bi_constraints/Log=5/heurj60.txt
encoding rcpsp/j60.sm/j6029_2.sm nv: 732036 nc: 1519648 enctime: 10.86
encoding rcpsp/j60.sm/j6029_2.sm nv: 379830 nc: 787390 enctime: 4.69
c File: j6029_2.smnaivebi5.wcnf
c timeout
c final solution cost: 135
c CPU time: 61.611884
s UNKNOWN

c File: j6029_2.smbi5.wcnf
c timeout
c final solution cost: 137
c CPU time: 60.682933
s UNKNOWN


rcpsp/heur_output_bi_constraints/Log=5/heurj60.txt
encoding rcpsp/j60.sm/j6029_3.sm nv: 918509 nc: 1904089 enctime: 13.83
encoding rcpsp/j60.sm/j6029_3.sm nv: 389109 nc: 805089 enctime: 4.92
c File: j6029_3.smnaivebi5.wcnf
c timeout
c final solution cost: 133
c CPU time: 61.941196
s UNKNOWN

c File: j6029_3.smbi5.wcnf
c timeout
c final solution cost: 126
c CPU time: 60.672060
s UNKNOWN


rcpsp/heur_output_bi_constraints/Log=5/heurj60.txt
encoding rcpsp/j60.sm/j6029_4.sm nv: 911501 nc: 1898544 enctime: 14.44
encoding rcpsp/j60.sm/j6029_4.sm nv: 388467 nc: 807568 enctime: 5.02
c File: j6029_4.smnaivebi5.wcnf
c timeout
c final solution cost: 141
c CPU time: 61.986550
s UNKNOWN

c File: j6029_4.smbi5.wcnf
c timeout
c final solution cost: 145
c CPU time: 60.709973
s UNKNOWN


rcpsp/heur_output_bi_constraints/Log=5/heurj60.txt
encoding rcpsp/j60.sm/j6029_5.sm nv: 917562 nc: 1891957 enctime: 14.01
encoding rcpsp/j60.sm/j6029_5.sm nv: 420900 nc: 866596 enctime: 5.31
c File: j6029_5.smnaivebi5.wcnf
c timeout
c final solution cost: 118
c CPU time: 61.893519
s UNKNOWN

c File: j6029_5.smbi5.wcnf
c timeout
c final solution cost: 116
c CPU time: 60.734993
s UNKNOWN


rcpsp/heur_output_bi_constraints/Log=5/heurj60.txt
encoding rcpsp/j60.sm/j6029_6.sm nv: 1061355 nc: 2228628 enctime: 17.77
encoding rcpsp/j60.sm/j6029_6.sm nv: 508620 nc: 1066287 enctime: 6.83
c File: j6029_6.smnaivebi5.wcnf
c timeout
c final solution cost: 171
c CPU time: 62.551945
s UNKNOWN

c File: j6029_6.smbi5.wcnf
c timeout
c final solution cost: 172
c CPU time: 60.964357
s UNKNOWN


rcpsp/heur_output_bi_constraints/Log=5/heurj60.txt
encoding rcpsp/j60.sm/j6029_7.sm nv: 773427 nc: 1596601 enctime: 11.72
encoding rcpsp/j60.sm/j6029_7.sm nv: 405486 nc: 836023 enctime: 5.64
c File: j6029_7.smnaivebi5.wcnf
c timeout
c final solution cost: 133
c CPU time: 61.721333
s UNKNOWN

c File: j6029_7.smbi5.wcnf
c timeout
c final solution cost: 131
c CPU time: 60.735435
s UNKNOWN


rcpsp/heur_output_bi_constraints/Log=5/heurj60.txt
encoding rcpsp/j60.sm/j6029_8.sm nv: 1005499 nc: 2063195 enctime: 15.57
encoding rcpsp/j60.sm/j6029_8.sm nv: 417142 nc: 854540 enctime: 5.45
c File: j6029_8.smnaivebi5.wcnf
c timeout
c final solution cost: 104
c CPU time: 62.022306
s UNKNOWN

c File: j6029_8.smbi5.wcnf
c timeout
c final solution cost: 101
c CPU time: 60.709199
s UNKNOWN


rcpsp/heur_output_bi_constraints/Log=5/heurj60.txt
encoding rcpsp/j60.sm/j6029_9.sm nv: 796358 nc: 1641484 enctime: 12.10
encoding rcpsp/j60.sm/j6029_9.sm nv: 383912 nc: 790198 enctime: 4.86
c File: j6029_9.smnaivebi5.wcnf
c timeout
c final solution cost: 120
c CPU time: 61.685058
s UNKNOWN

c File: j6029_9.smbi5.wcnf
c timeout
c final solution cost: 120
c CPU time: 60.685142
s UNKNOWN


rcpsp/heur_output_bi_constraints/Log=5/heurj60.txt
encoding rcpsp/j60.sm/j602_9.sm nv: 164793 nc: 393259 enctime: 4.04
encoding rcpsp/j60.sm/j602_9.sm nv: 27384 nc: 63365 enctime: 0.42
c File: j602_9.smnaivebi5.wcnf
c optimal
c final solution cost: 51
c CPU time: 1.102224
s OPTIMUM FOUND

c File: j602_9.smbi5.wcnf
c optimal
c final solution cost: 51
c CPU time: 0.068783
s OPTIMUM FOUND


rcpsp/heur_output_bi_constraints/Log=5/heurj60.txt
encoding rcpsp/j60.sm/j6030_10.sm nv: 1552188 nc: 3164614 enctime: 23.08
encoding rcpsp/j60.sm/j6030_10.sm nv: 419048 nc: 852224 enctime: 4.99
c File: j6030_10.smnaivebi5.wcnf
c timeout
c final solution cost: 83
c CPU time: 62.941425
s UNKNOWN

c File: j6030_10.smbi5.wcnf
c timeout
c final solution cost: 82
c CPU time: 60.669499
s UNKNOWN


rcpsp/heur_output_bi_constraints/Log=5/heurj60.txt
encoding rcpsp/j60.sm/j6030_1.sm nv: 1381650 nc: 2791898 enctime: 20.65
encoding rcpsp/j60.sm/j6030_1.sm nv: 347700 nc: 700946 enctime: 4.21
c File: j6030_1.smnaivebi5.wcnf
c timeout
c final solution cost: 66
c CPU time: 62.515641
s UNKNOWN

c File: j6030_1.smbi5.wcnf
c optimal
c final solution cost: 65
c CPU time: 46.864697
s OPTIMUM FOUND


rcpsp/heur_output_bi_constraints/Log=5/heurj60.txt
encoding rcpsp/j60.sm/j6030_2.sm nv: 1464708 nc: 2972775 enctime: 22.30
encoding rcpsp/j60.sm/j6030_2.sm nv: 418488 nc: 847670 enctime: 5.86
c File: j6030_2.smnaivebi5.wcnf
c timeout
c final solution cost: 72
c CPU time: 62.708061
s UNKNOWN

c File: j6030_2.smbi5.wcnf
c timeout
c final solution cost: 70
c CPU time: 60.664025
s UNKNOWN


rcpsp/heur_output_bi_constraints/Log=5/heurj60.txt
encoding rcpsp/j60.sm/j6030_3.sm nv: 1756066 nc: 3577818 enctime: 26.90
encoding rcpsp/j60.sm/j6030_3.sm nv: 461142 nc: 937374 enctime: 5.49
c File: j6030_3.smnaivebi5.wcnf
c optimal
c final solution cost: 80
c CPU time: 52.877272
s OPTIMUM FOUND

c File: j6030_3.smbi5.wcnf
c optimal
c final solution cost: 80
c CPU time: 4.907680
s OPTIMUM FOUND


rcpsp/heur_output_bi_constraints/Log=5/heurj60.txt
encoding rcpsp/j60.sm/j6030_4.sm nv: 1650506 nc: 3330535 enctime: 23.63
encoding rcpsp/j60.sm/j6030_4.sm nv: 419094 nc: 843911 enctime: 5.66
c File: j6030_4.smnaivebi5.wcnf
c optimal
c final solution cost: 76
c CPU time: 3.926465
s OPTIMUM FOUND

c File: j6030_4.smbi5.wcnf
c optimal
c final solution cost: 76
c CPU time: 0.893528
s OPTIMUM FOUND


rcpsp/heur_output_bi_constraints/Log=5/heurj60.txt
encoding rcpsp/j60.sm/j6030_5.sm nv: 1748292 nc: 3550230 enctime: 26.25
encoding rcpsp/j60.sm/j6030_5.sm nv: 398649 nc: 807389 enctime: 4.83
c File: j6030_5.smnaivebi5.wcnf
c timeout
c final solution cost: 70
c CPU time: 63.236054
s UNKNOWN

c File: j6030_5.smbi5.wcnf
c timeout
c final solution cost: 73
c CPU time: 60.626941
s UNKNOWN


rcpsp/heur_output_bi_constraints/Log=5/heurj60.txt
encoding rcpsp/j60.sm/j6030_6.sm nv: 1572600 nc: 3168592 enctime: 22.38
encoding rcpsp/j60.sm/j6030_6.sm nv: 372182 nc: 748291 enctime: 4.42
c File: j6030_6.smnaivebi5.wcnf
c optimal
c final solution cost: 62
c CPU time: 4.862387
s OPTIMUM FOUND

c File: j6030_6.smbi5.wcnf
c optimal
c final solution cost: 62
c CPU time: 1.081268
s OPTIMUM FOUND


rcpsp/heur_output_bi_constraints/Log=5/heurj60.txt
encoding rcpsp/j60.sm/j6030_7.sm nv: 1520428 nc: 3102023 enctime: 22.87
encoding rcpsp/j60.sm/j6030_7.sm nv: 459470 nc: 935403 enctime: 5.91
c File: j6030_7.smnaivebi5.wcnf
c timeout
c final solution cost: 85
c CPU time: 62.830269
s UNKNOWN

c File: j6030_7.smbi5.wcnf
c timeout
c final solution cost: 86
c CPU time: 60.721125
s UNKNOWN


rcpsp/heur_output_bi_constraints/Log=5/heurj60.txt
encoding rcpsp/j60.sm/j6030_8.sm nv: 1648717 nc: 3325921 enctime: 23.72
encoding rcpsp/j60.sm/j6030_8.sm nv: 358869 nc: 722169 enctime: 5.15
c File: j6030_8.smnaivebi5.wcnf
c optimal
c final solution cost: 60
c CPU time: 4.637923
s OPTIMUM FOUND

c File: j6030_8.smbi5.wcnf
c optimal
c final solution cost: 60
c CPU time: 1.083081
s OPTIMUM FOUND


rcpsp/heur_output_bi_constraints/Log=5/heurj60.txt
encoding rcpsp/j60.sm/j6030_9.sm nv: 1434945 nc: 2930689 enctime: 22.48
encoding rcpsp/j60.sm/j6030_9.sm nv: 491865 nc: 1002769 enctime: 6.70
c File: j6030_9.smnaivebi5.wcnf
c timeout
c final solution cost: 87
c CPU time: 62.759933
s UNKNOWN

c File: j6030_9.smbi5.wcnf
c timeout
c final solution cost: 88
c CPU time: 60.795177
s UNKNOWN


rcpsp/heur_output_bi_constraints/Log=5/heurj60.txt
encoding rcpsp/j60.sm/j603_10.sm nv: 159460 nc: 384242 enctime: 4.16
encoding rcpsp/j60.sm/j603_10.sm nv: 33796 nc: 79586 enctime: 0.54
c File: j603_10.smnaivebi5.wcnf
c optimal
c final solution cost: 67
c CPU time: 0.994061
s OPTIMUM FOUND

c File: j603_10.smbi5.wcnf
c optimal
c final solution cost: 67
c CPU time: 0.118908
s OPTIMUM FOUND


rcpsp/heur_output_bi_constraints/Log=5/heurj60.txt
encoding rcpsp/j60.sm/j6031_10.sm nv: 1934730 nc: 3890824 enctime: 28.79
encoding rcpsp/j60.sm/j6031_10.sm nv: 362378 nc: 726920 enctime: 4.61
c File: j6031_10.smnaivebi5.wcnf
c optimal
c final solution cost: 55
c CPU time: 5.333693
s OPTIMUM FOUND

c File: j6031_10.smbi5.wcnf
c optimal
c final solution cost: 55
c CPU time: 0.826399
s OPTIMUM FOUND


rcpsp/heur_output_bi_constraints/Log=5/heurj60.txt
encoding rcpsp/j60.sm/j6031_1.sm nv: 1957956 nc: 3929133 enctime: 28.86
encoding rcpsp/j60.sm/j6031_1.sm nv: 419562 nc: 840245 enctime: 5.23
c File: j6031_1.smnaivebi5.wcnf
c optimal
c final solution cost: 65
c CPU time: 5.764094
s OPTIMUM FOUND

c File: j6031_1.smbi5.wcnf
c optimal
c final solution cost: 65
c CPU time: 0.845207
s OPTIMUM FOUND


rcpsp/heur_output_bi_constraints/Log=5/heurj60.txt
encoding rcpsp/j60.sm/j6031_2.sm nv: 1851171 nc: 3736828 enctime: 27.73
encoding rcpsp/j60.sm/j6031_2.sm nv: 442554 nc: 891406 enctime: 6.30
c File: j6031_2.smnaivebi5.wcnf
c optimal
c final solution cost: 70
c CPU time: 6.459948
s OPTIMUM FOUND

c File: j6031_2.smbi5.wcnf
c optimal
c final solution cost: 70
c CPU time: 2.483228
s OPTIMUM FOUND


rcpsp/heur_output_bi_constraints/Log=5/heurj60.txt
encoding rcpsp/j60.sm/j6031_3.sm nv: 2053634 nc: 4129567 enctime: 30.21
encoding rcpsp/j60.sm/j6031_3.sm nv: 432344 nc: 867607 enctime: 5.30
c File: j6031_3.smnaivebi5.wcnf
c optimal
c final solution cost: 61
c CPU time: 5.671507
s OPTIMUM FOUND

c File: j6031_3.smbi5.wcnf
c optimal
c final solution cost: 61
c CPU time: 1.567403
s OPTIMUM FOUND


rcpsp/heur_output_bi_constraints/Log=5/heurj60.txt
encoding rcpsp/j60.sm/j6031_4.sm nv: 1662186 nc: 3354435 enctime: 24.34
encoding rcpsp/j60.sm/j6031_4.sm nv: 339755 nc: 683767 enctime: 4.19
c File: j6031_4.smnaivebi5.wcnf
c optimal
c final solution cost: 58
c CPU time: 10.260783
s OPTIMUM FOUND

c File: j6031_4.smbi5.wcnf
c optimal
c final solution cost: 58
c CPU time: 2.485221
s OPTIMUM FOUND


rcpsp/heur_output_bi_constraints/Log=5/heurj60.txt
encoding rcpsp/j60.sm/j6031_5.sm nv: 2384524 nc: 4787116 enctime: 34.07
encoding rcpsp/j60.sm/j6031_5.sm nv: 453852 nc: 909156 enctime: 5.64
c File: j6031_5.smnaivebi5.wcnf
c optimal
c final solution cost: 61
c CPU time: 6.652628
s OPTIMUM FOUND

c File: j6031_5.smbi5.wcnf
c optimal
c final solution cost: 61
c CPU time: 1.191062
s OPTIMUM FOUND


rcpsp/heur_output_bi_constraints/Log=5/heurj60.txt
encoding rcpsp/j60.sm/j6031_6.sm nv: 2472873 nc: 4992000 enctime: 37.25
encoding rcpsp/j60.sm/j6031_6.sm nv: 470418 nc: 947085 enctime: 5.91
c File: j6031_6.smnaivebi5.wcnf
c optimal
c final solution cost: 66
c CPU time: 7.208051
s OPTIMUM FOUND

c File: j6031_6.smbi5.wcnf
c optimal
c final solution cost: 66
c CPU time: 2.516269
s OPTIMUM FOUND


rcpsp/heur_output_bi_constraints/Log=5/heurj60.txt
encoding rcpsp/j60.sm/j6031_7.sm nv: 1621120 nc: 3274132 enctime: 23.97
encoding rcpsp/j60.sm/j6031_7.sm nv: 395148 nc: 796294 enctime: 5.56
c File: j6031_7.smnaivebi5.wcnf
c optimal
c final solution cost: 76
c CPU time: 4.836224
s OPTIMUM FOUND

c File: j6031_7.smbi5.wcnf
c optimal
c final solution cost: 76
c CPU time: 1.103019
s OPTIMUM FOUND


rcpsp/heur_output_bi_constraints/Log=5/heurj60.txt
encoding rcpsp/j60.sm/j6031_8.sm nv: 1957200 nc: 3946206 enctime: 29.37
encoding rcpsp/j60.sm/j6031_8.sm nv: 448525 nc: 902438 enctime: 5.50
c File: j6031_8.smnaivebi5.wcnf
c optimal
c final solution cost: 64
c CPU time: 5.730907
s OPTIMUM FOUND

c File: j6031_8.smbi5.wcnf
c optimal
c final solution cost: 64
c CPU time: 1.461640
s OPTIMUM FOUND


